benchmark/results/graph__15-1000-0.10-02_0/graph__15-1000-0.10-02_0_Quinton_Benders_sub.lp
\ This file has been generated by DOcplex
\ ENCODING=ISO-8859-1
\Problem name: Quinton Benders_dual_sub

Minimize
 obj: 0.001150747986 pi_nr_a0 + 0.000956022945 pi_nr_a1
      + 0.001736111111 pi_nr_a2 + 0.000955109838 pi_nr_a3
      + 0.001831501832 pi_nr_a4 + 0.000903342367 pi_nr_a5
      + 0.001146788991 pi_nr_a6 + 0.000958772771 pi_nr_a7
      + 0.001011122346 pi_nr_a8 + 0.000851063830 pi_nr_a9
      + 0.001620745543 pi_nr_a10 + 0.000944287063 pi_nr_a11
      + 0.000881057269 pi_nr_a12 + 0.001085776330 pi_nr_a13
      + 0.001101321586 pi_nr_a14 + pi_p_a2_a4 + pi_p_a0_a8 + pi_p_a0_a10
      + pi_p_a12_a2 + pi_p_a5_a14 + pi_p_a1_a6 + pi_p_a8_a10 + pi_p_a14_a8
      + pi_p_a14_a11 + pi_p_a12_a14 + 2385 pi_d_a0_a1_proc_1
      + 2385 pi_d_a0_a2_proc_0 + 2385 pi_d_a0_a2_proc_1 + 2385 pi_d_a0_a3_proc_1
      + pi_d_a0_a4_proc_0 + pi_d_a0_a5_proc_0 + 2385 pi_d_a0_a5_proc_1
      + 2384 pi_d_a5_a0_proc_1 + pi_d_a0_a6_proc_0 + 2385 pi_d_a0_a6_proc_1
      + 2384 pi_d_a6_a0_proc_1 + 2385 pi_d_a0_a7_proc_1 + pi_d_a0_a8_proc_0
      + pi_d_a0_a9_proc_0 + pi_d_a0_a10_proc_0 + 2385 pi_d_a0_a11_proc_1
      + 2384 pi_d_a0_a12_proc_0 + 2384 pi_d_a0_a12_proc_1 + pi_d_a12_a0_proc_0
      + pi_d_a12_a0_proc_1 + pi_d_a0_a13_proc_0 + 2385 pi_d_a0_a13_proc_1
      + 2384 pi_d_a13_a0_proc_1 + pi_d_a0_a14_proc_1 + 2384 pi_d_a14_a0_proc_1
      + pi_d_a1_a2_proc_1 + pi_d_a1_a3_proc_1 + 2384 pi_d_a1_a5_proc_1
      + pi_d_a5_a1_proc_1 + 2385 pi_d_a1_a6_proc_1 + pi_d_a1_a7_proc_1
      + pi_d_a1_a11_proc_1 + pi_d_a12_a1_proc_1 + 2385 pi_d_a1_a13_proc_1
      + pi_d_a1_a14_proc_1 + pi_d_a3_a2_proc_1 + 2385 pi_d_a4_a2_proc_0
      + 2384 pi_d_a2_a5_proc_0 + 2384 pi_d_a2_a5_proc_1 + pi_d_a5_a2_proc_0
      + pi_d_a5_a2_proc_1 + 2384 pi_d_a2_a6_proc_0 + 2384 pi_d_a2_a6_proc_1
      + pi_d_a6_a2_proc_0 + pi_d_a6_a2_proc_1 + pi_d_a7_a2_proc_1
      + 2384 pi_d_a2_a8_proc_0 + pi_d_a8_a2_proc_0 + 2384 pi_d_a2_a9_proc_0
      + pi_d_a9_a2_proc_0 + pi_d_a2_a10_proc_0 + 2384 pi_d_a10_a2_proc_0
      + pi_d_a11_a2_proc_1 + 2384 pi_d_a2_a12_proc_0 + 2385 pi_d_a12_a2_proc_0
      + pi_d_a12_a2_proc_1 + 2385 pi_d_a13_a2_proc_0 + 2385 pi_d_a13_a2_proc_1
      + pi_d_a14_a2_proc_1 + 2385 pi_d_a5_a3_proc_1 + 2384 pi_d_a3_a6_proc_1
      + pi_d_a6_a3_proc_1 + pi_d_a3_a7_proc_1 + pi_d_a3_a11_proc_1
      + pi_d_a12_a3_proc_1 + 2385 pi_d_a3_a13_proc_1 + pi_d_a3_a14_proc_1
      + pi_d_a5_a4_proc_0 + pi_d_a6_a4_proc_0 + pi_d_a4_a8_proc_0
      + pi_d_a4_a9_proc_0 + pi_d_a4_a10_proc_0 + 2384 pi_d_a4_a12_proc_0
      + pi_d_a12_a4_proc_0 + pi_d_a4_a13_proc_0 + pi_d_a5_a6_proc_0
      + 2385 pi_d_a5_a6_proc_1 + 2384 pi_d_a6_a5_proc_1 + pi_d_a5_a7_proc_1
      + 2384 pi_d_a7_a5_proc_1 + pi_d_a5_a8_proc_0 + pi_d_a5_a9_proc_0
      + pi_d_a5_a10_proc_0 + 2385 pi_d_a5_a11_proc_1 + 2384 pi_d_a5_a12_proc_0
      + 2384 pi_d_a5_a12_proc_1 + pi_d_a12_a5_proc_0 + pi_d_a12_a5_proc_1
      + pi_d_a5_a13_proc_0 + 2385 pi_d_a5_a13_proc_1 + 2384 pi_d_a13_a5_proc_1
      + pi_d_a5_a14_proc_1 + 2384 pi_d_a14_a5_proc_1 + 2384 pi_d_a6_a7_proc_1
      + pi_d_a7_a6_proc_1 + pi_d_a6_a8_proc_0 + pi_d_a6_a9_proc_0
      + pi_d_a6_a10_proc_0 + 2385 pi_d_a6_a11_proc_1 + 2384 pi_d_a6_a12_proc_0
      + 2384 pi_d_a6_a12_proc_1 + pi_d_a12_a6_proc_0 + pi_d_a12_a6_proc_1
      + pi_d_a6_a13_proc_0 + 2385 pi_d_a6_a13_proc_1 + 2384 pi_d_a13_a6_proc_1
      + 2384 pi_d_a6_a14_proc_1 + pi_d_a14_a6_proc_1 + pi_d_a7_a11_proc_1
      + pi_d_a12_a7_proc_1 + 2384 pi_d_a7_a13_proc_1 + pi_d_a13_a7_proc_1
      + pi_d_a7_a14_proc_1 + pi_d_a9_a8_proc_0 + pi_d_a8_a10_proc_0
      + 2385 pi_d_a12_a8_proc_0 + pi_d_a13_a8_proc_0 + pi_d_a9_a10_proc_0
      + 2385 pi_d_a12_a9_proc_0 + pi_d_a13_a9_proc_0 + 2385 pi_d_a12_a10_proc_0
      + pi_d_a13_a10_proc_0 + pi_d_a12_a11_proc_1 + 2384 pi_d_a11_a13_proc_1
      + pi_d_a13_a11_proc_1 + pi_d_a14_a11_proc_1 + pi_d_a12_a13_proc_0
      + pi_d_a12_a13_proc_1 + 2384 pi_d_a13_a12_proc_0
      + 2384 pi_d_a13_a12_proc_1 + pi_d_a12_a14_proc_1
      + 2384 pi_d_a13_a14_proc_1 + pi_d_a14_a13_proc_1 + pi_y2_a0_proc_0
      + pi_y2_a1_proc_1 + pi_y2_a2_proc_1 + pi_y2_a3_proc_1 + pi_y2_a4_proc_0
      + pi_y2_a5_proc_0 + pi_y2_a6_proc_0 + pi_y2_a7_proc_1 + pi_y2_a8_proc_0
      + pi_y2_a9_proc_0 + pi_y2_a10_proc_0 + pi_y2_a11_proc_1 + pi_y2_a12_proc_1
      + pi_y2_a13_proc_0 + pi_y2_a14_proc_1
Subject To
 c1: pi_nr_a0 + pi_nr_a1 + pi_nr_a2 + pi_nr_a3 + pi_nr_a4 + pi_nr_a5 + pi_nr_a6
     + pi_nr_a7 + pi_nr_a8 + pi_nr_a9 + pi_nr_a10 + pi_nr_a11 + pi_nr_a12
     + pi_nr_a13 + pi_nr_a14 - pi_y1_a0 - pi_y1_a1 - pi_y1_a2 - pi_y1_a3
     - pi_y1_a4 - pi_y1_a5 - pi_y1_a6 - pi_y1_a7 - pi_y1_a8 - pi_y1_a9
     - pi_y1_a10 - pi_y1_a11 - pi_y1_a12 - pi_y1_a13 - pi_y1_a14 >= 1
 c2: - pi_p_a1_a0 + pi_p_a0_a8 + pi_p_a0_a10 + pi_p_a0_a12 + pi_d_a0_a1_proc_1
     - pi_d_a1_a0_proc_1 + pi_d_a0_a2_proc_0 + pi_d_a0_a2_proc_1
     - pi_d_a2_a0_proc_0 - pi_d_a2_a0_proc_1 + pi_d_a0_a3_proc_1
     - pi_d_a3_a0_proc_1 + pi_d_a0_a4_proc_0 - pi_d_a4_a0_proc_0
     + pi_d_a0_a5_proc_0 + pi_d_a0_a5_proc_1 - pi_d_a5_a0_proc_0
     - pi_d_a5_a0_proc_1 + pi_d_a0_a6_proc_0 + pi_d_a0_a6_proc_1
     - pi_d_a6_a0_proc_0 - pi_d_a6_a0_proc_1 + pi_d_a0_a7_proc_1
     - pi_d_a7_a0_proc_1 + pi_d_a0_a8_proc_0 - pi_d_a8_a0_proc_0
     + pi_d_a0_a9_proc_0 - pi_d_a9_a0_proc_0 + pi_d_a0_a10_proc_0
     - pi_d_a10_a0_proc_0 + pi_d_a0_a11_proc_1 - pi_d_a11_a0_proc_1
     + pi_d_a0_a12_proc_0 + pi_d_a0_a12_proc_1 - pi_d_a12_a0_proc_0
     - pi_d_a12_a0_proc_1 + pi_d_a0_a13_proc_0 + pi_d_a0_a13_proc_1
     - pi_d_a13_a0_proc_0 - pi_d_a13_a0_proc_1 + pi_d_a0_a14_proc_1
     - pi_d_a14_a0_proc_1 >= 0
 c3: 869 pi_p_a0_a8 + 869 pi_p_a0_a10 + 869 pi_p_a0_a12 + 869 pi_d_a0_a2_proc_0
     + 869 pi_d_a0_a4_proc_0 + 869 pi_d_a0_a5_proc_0 + 869 pi_d_a0_a6_proc_0
     + 869 pi_d_a0_a8_proc_0 + 869 pi_d_a0_a9_proc_0 + 869 pi_d_a0_a10_proc_0
     + 869 pi_d_a0_a12_proc_0 + 869 pi_d_a0_a13_proc_0 + pi_y1_a0
     + pi_y2_a0_proc_0 >= 0
 c4: 919 pi_p_a0_a8 + 919 pi_p_a0_a10 + 919 pi_p_a0_a12 + 919 pi_d_a0_a1_proc_1
     + 919 pi_d_a0_a2_proc_1 + 919 pi_d_a0_a3_proc_1 + 919 pi_d_a0_a5_proc_1
     + 919 pi_d_a0_a6_proc_1 + 919 pi_d_a0_a7_proc_1 + 919 pi_d_a0_a11_proc_1
     + 919 pi_d_a0_a12_proc_1 + 919 pi_d_a0_a13_proc_1 + 919 pi_d_a0_a14_proc_1
     + pi_y1_a0 + pi_y2_a0_proc_1 >= 0
 c5: pi_p_a1_a0 - pi_p_a2_a1 - pi_p_a3_a1 - pi_p_a6_a1 + pi_p_a1_a6
     - pi_d_a0_a1_proc_1 + pi_d_a1_a0_proc_1 + pi_d_a1_a2_proc_1
     - pi_d_a2_a1_proc_1 + pi_d_a1_a3_proc_1 - pi_d_a3_a1_proc_1
     + pi_d_a1_a5_proc_1 - pi_d_a5_a1_proc_1 + pi_d_a1_a6_proc_1
     - pi_d_a6_a1_proc_1 + pi_d_a1_a7_proc_1 - pi_d_a7_a1_proc_1
     + pi_d_a1_a11_proc_1 - pi_d_a11_a1_proc_1 + pi_d_a1_a12_proc_1
     - pi_d_a12_a1_proc_1 + pi_d_a1_a13_proc_1 - pi_d_a13_a1_proc_1
     + pi_d_a1_a14_proc_1 - pi_d_a14_a1_proc_1 >= 0
 c6: 1046 pi_p_a1_a0 + 1046 pi_p_a1_a6 + 1046 pi_d_a1_a0_proc_1
     + 1046 pi_d_a1_a2_proc_1 + 1046 pi_d_a1_a3_proc_1 + 1046 pi_d_a1_a5_proc_1
     + 1046 pi_d_a1_a6_proc_1 + 1046 pi_d_a1_a7_proc_1 + 1046 pi_d_a1_a11_proc_1
     + 1046 pi_d_a1_a12_proc_1 + 1046 pi_d_a1_a13_proc_1
     + 1046 pi_d_a1_a14_proc_1 + pi_y1_a1 + pi_y2_a1_proc_1 >= 0
 c7: pi_p_a2_a1 + pi_p_a2_a4 - pi_p_a12_a2 - pi_d_a0_a2_proc_0
     - pi_d_a0_a2_proc_1 + pi_d_a2_a0_proc_0 + pi_d_a2_a0_proc_1
     - pi_d_a1_a2_proc_1 + pi_d_a2_a1_proc_1 + pi_d_a2_a3_proc_1
     - pi_d_a3_a2_proc_1 + pi_d_a2_a4_proc_0 - pi_d_a4_a2_proc_0
     + pi_d_a2_a5_proc_0 + pi_d_a2_a5_proc_1 - pi_d_a5_a2_proc_0
     - pi_d_a5_a2_proc_1 + pi_d_a2_a6_proc_0 + pi_d_a2_a6_proc_1
     - pi_d_a6_a2_proc_0 - pi_d_a6_a2_proc_1 + pi_d_a2_a7_proc_1
     - pi_d_a7_a2_proc_1 + pi_d_a2_a8_proc_0 - pi_d_a8_a2_proc_0
     + pi_d_a2_a9_proc_0 - pi_d_a9_a2_proc_0 + pi_d_a2_a10_proc_0
     - pi_d_a10_a2_proc_0 + pi_d_a2_a11_proc_1 - pi_d_a11_a2_proc_1
     + pi_d_a2_a12_proc_0 + pi_d_a2_a12_proc_1 - pi_d_a12_a2_proc_0
     - pi_d_a12_a2_proc_1 + pi_d_a2_a13_proc_0 + pi_d_a2_a13_proc_1
     - pi_d_a13_a2_proc_0 - pi_d_a13_a2_proc_1 + pi_d_a2_a14_proc_1
     - pi_d_a14_a2_proc_1 >= 0
 c8: 715 pi_p_a2_a1 + 715 pi_p_a2_a4 + 715 pi_d_a2_a0_proc_0
     + 715 pi_d_a2_a4_proc_0 + 715 pi_d_a2_a5_proc_0 + 715 pi_d_a2_a6_proc_0
     + 715 pi_d_a2_a8_proc_0 + 715 pi_d_a2_a9_proc_0 + 715 pi_d_a2_a10_proc_0
     + 715 pi_d_a2_a12_proc_0 + 715 pi_d_a2_a13_proc_0 + pi_y1_a2
     + pi_y2_a2_proc_0 >= 0
 c9: 576 pi_p_a2_a1 + 576 pi_p_a2_a4 + 576 pi_d_a2_a0_proc_1
     + 576 pi_d_a2_a1_proc_1 + 576 pi_d_a2_a3_proc_1 + 576 pi_d_a2_a5_proc_1
     + 576 pi_d_a2_a6_proc_1 + 576 pi_d_a2_a7_proc_1 + 576 pi_d_a2_a11_proc_1
     + 576 pi_d_a2_a12_proc_1 + 576 pi_d_a2_a13_proc_1 + 576 pi_d_a2_a14_proc_1
     + pi_y1_a2 + pi_y2_a2_proc_1 >= 0
 c10: pi_p_a3_a1 - pi_p_a7_a3 - pi_p_a13_a3 - pi_d_a0_a3_proc_1
      + pi_d_a3_a0_proc_1 - pi_d_a1_a3_proc_1 + pi_d_a3_a1_proc_1
      - pi_d_a2_a3_proc_1 + pi_d_a3_a2_proc_1 + pi_d_a3_a5_proc_1
      - pi_d_a5_a3_proc_1 + pi_d_a3_a6_proc_1 - pi_d_a6_a3_proc_1
      + pi_d_a3_a7_proc_1 - pi_d_a7_a3_proc_1 + pi_d_a3_a11_proc_1
      - pi_d_a11_a3_proc_1 + pi_d_a3_a12_proc_1 - pi_d_a12_a3_proc_1
      + pi_d_a3_a13_proc_1 - pi_d_a13_a3_proc_1 + pi_d_a3_a14_proc_1
      - pi_d_a14_a3_proc_1 >= 0
 c11: 1047 pi_p_a3_a1 + 1047 pi_d_a3_a0_proc_1 + 1047 pi_d_a3_a1_proc_1
      + 1047 pi_d_a3_a2_proc_1 + 1047 pi_d_a3_a5_proc_1 + 1047 pi_d_a3_a6_proc_1
      + 1047 pi_d_a3_a7_proc_1 + 1047 pi_d_a3_a11_proc_1
      + 1047 pi_d_a3_a12_proc_1 + 1047 pi_d_a3_a13_proc_1
      + 1047 pi_d_a3_a14_proc_1 + pi_y1_a3 + pi_y2_a3_proc_1 >= 0
 c12: - pi_p_a2_a4 + pi_p_a4_a5 - pi_p_a13_a4 - pi_p_a11_a4 - pi_d_a0_a4_proc_0
      + pi_d_a4_a0_proc_0 - pi_d_a2_a4_proc_0 + pi_d_a4_a2_proc_0
      + pi_d_a4_a5_proc_0 - pi_d_a5_a4_proc_0 + pi_d_a4_a6_proc_0
      - pi_d_a6_a4_proc_0 + pi_d_a4_a8_proc_0 - pi_d_a8_a4_proc_0
      + pi_d_a4_a9_proc_0 - pi_d_a9_a4_proc_0 + pi_d_a4_a10_proc_0
      - pi_d_a10_a4_proc_0 + pi_d_a4_a12_proc_0 - pi_d_a12_a4_proc_0
      + pi_d_a4_a13_proc_0 - pi_d_a13_a4_proc_0 >= 0
 c13: 546 pi_p_a4_a5 + 546 pi_d_a4_a0_proc_0 + 546 pi_d_a4_a2_proc_0
      + 546 pi_d_a4_a5_proc_0 + 546 pi_d_a4_a6_proc_0 + 546 pi_d_a4_a8_proc_0
      + 546 pi_d_a4_a9_proc_0 + 546 pi_d_a4_a10_proc_0 + 546 pi_d_a4_a12_proc_0
      + 546 pi_d_a4_a13_proc_0 + pi_y1_a4 + pi_y2_a4_proc_0 >= 0
 c14: - pi_p_a4_a5 + pi_p_a5_a14 - pi_d_a0_a5_proc_0 - pi_d_a0_a5_proc_1
      + pi_d_a5_a0_proc_0 + pi_d_a5_a0_proc_1 - pi_d_a1_a5_proc_1
      + pi_d_a5_a1_proc_1 - pi_d_a2_a5_proc_0 - pi_d_a2_a5_proc_1
      + pi_d_a5_a2_proc_0 + pi_d_a5_a2_proc_1 - pi_d_a3_a5_proc_1
      + pi_d_a5_a3_proc_1 - pi_d_a4_a5_proc_0 + pi_d_a5_a4_proc_0
      + pi_d_a5_a6_proc_0 + pi_d_a5_a6_proc_1 - pi_d_a6_a5_proc_0
      - pi_d_a6_a5_proc_1 + pi_d_a5_a7_proc_1 - pi_d_a7_a5_proc_1
      + pi_d_a5_a8_proc_0 - pi_d_a8_a5_proc_0 + pi_d_a5_a9_proc_0
      - pi_d_a9_a5_proc_0 + pi_d_a5_a10_proc_0 - pi_d_a10_a5_proc_0
      + pi_d_a5_a11_proc_1 - pi_d_a11_a5_proc_1 + pi_d_a5_a12_proc_0
      + pi_d_a5_a12_proc_1 - pi_d_a12_a5_proc_0 - pi_d_a12_a5_proc_1
      + pi_d_a5_a13_proc_0 + pi_d_a5_a13_proc_1 - pi_d_a13_a5_proc_0
      - pi_d_a13_a5_proc_1 + pi_d_a5_a14_proc_1 - pi_d_a14_a5_proc_1 >= 0
 c15: 1107 pi_p_a5_a14 + 1107 pi_d_a5_a0_proc_0 + 1107 pi_d_a5_a2_proc_0
      + 1107 pi_d_a5_a4_proc_0 + 1107 pi_d_a5_a6_proc_0 + 1107 pi_d_a5_a8_proc_0
      + 1107 pi_d_a5_a9_proc_0 + 1107 pi_d_a5_a10_proc_0
      + 1107 pi_d_a5_a12_proc_0 + 1107 pi_d_a5_a13_proc_0 + pi_y1_a5
      + pi_y2_a5_proc_0 >= 0
 c16: 944 pi_p_a5_a14 + 944 pi_d_a5_a0_proc_1 + 944 pi_d_a5_a1_proc_1
      + 944 pi_d_a5_a2_proc_1 + 944 pi_d_a5_a3_proc_1 + 944 pi_d_a5_a6_proc_1
      + 944 pi_d_a5_a7_proc_1 + 944 pi_d_a5_a11_proc_1 + 944 pi_d_a5_a12_proc_1
      + 944 pi_d_a5_a13_proc_1 + 944 pi_d_a5_a14_proc_1 + pi_y1_a5
      + pi_y2_a5_proc_1 >= 0
 c17: pi_p_a6_a1 - pi_p_a1_a6 - pi_p_a7_a6 - pi_d_a0_a6_proc_0
      - pi_d_a0_a6_proc_1 + pi_d_a6_a0_proc_0 + pi_d_a6_a0_proc_1
      - pi_d_a1_a6_proc_1 + pi_d_a6_a1_proc_1 - pi_d_a2_a6_proc_0
      - pi_d_a2_a6_proc_1 + pi_d_a6_a2_proc_0 + pi_d_a6_a2_proc_1
      - pi_d_a3_a6_proc_1 + pi_d_a6_a3_proc_1 - pi_d_a4_a6_proc_0
      + pi_d_a6_a4_proc_0 - pi_d_a5_a6_proc_0 - pi_d_a5_a6_proc_1
      + pi_d_a6_a5_proc_0 + pi_d_a6_a5_proc_1 + pi_d_a6_a7_proc_1
      - pi_d_a7_a6_proc_1 + pi_d_a6_a8_proc_0 - pi_d_a8_a6_proc_0
      + pi_d_a6_a9_proc_0 - pi_d_a9_a6_proc_0 + pi_d_a6_a10_proc_0
      - pi_d_a10_a6_proc_0 + pi_d_a6_a11_proc_1 - pi_d_a11_a6_proc_1
      + pi_d_a6_a12_proc_0 + pi_d_a6_a12_proc_1 - pi_d_a12_a6_proc_0
      - pi_d_a12_a6_proc_1 + pi_d_a6_a13_proc_0 + pi_d_a6_a13_proc_1
      - pi_d_a13_a6_proc_0 - pi_d_a13_a6_proc_1 + pi_d_a6_a14_proc_1
      - pi_d_a14_a6_proc_1 >= 0
 c18: 872 pi_p_a6_a1 + 872 pi_d_a6_a0_proc_0 + 872 pi_d_a6_a2_proc_0
      + 872 pi_d_a6_a4_proc_0 + 872 pi_d_a6_a5_proc_0 + 872 pi_d_a6_a8_proc_0
      + 872 pi_d_a6_a9_proc_0 + 872 pi_d_a6_a10_proc_0 + 872 pi_d_a6_a12_proc_0
      + 872 pi_d_a6_a13_proc_0 + pi_y1_a6 + pi_y2_a6_proc_0 >= 0
 c19: 942 pi_p_a6_a1 + 942 pi_d_a6_a0_proc_1 + 942 pi_d_a6_a1_proc_1
      + 942 pi_d_a6_a2_proc_1 + 942 pi_d_a6_a3_proc_1 + 942 pi_d_a6_a5_proc_1
      + 942 pi_d_a6_a7_proc_1 + 942 pi_d_a6_a11_proc_1 + 942 pi_d_a6_a12_proc_1
      + 942 pi_d_a6_a13_proc_1 + 942 pi_d_a6_a14_proc_1 + pi_y1_a6
      + pi_y2_a6_proc_1 >= 0
 c20: pi_p_a7_a3 - pi_p_a13_a7 + pi_p_a7_a6 - pi_d_a0_a7_proc_1
      + pi_d_a7_a0_proc_1 - pi_d_a1_a7_proc_1 + pi_d_a7_a1_proc_1
      - pi_d_a2_a7_proc_1 + pi_d_a7_a2_proc_1 - pi_d_a3_a7_proc_1
      + pi_d_a7_a3_proc_1 - pi_d_a5_a7_proc_1 + pi_d_a7_a5_proc_1
      - pi_d_a6_a7_proc_1 + pi_d_a7_a6_proc_1 + pi_d_a7_a11_proc_1
      - pi_d_a11_a7_proc_1 + pi_d_a7_a12_proc_1 - pi_d_a12_a7_proc_1
      + pi_d_a7_a13_proc_1 - pi_d_a13_a7_proc_1 + pi_d_a7_a14_proc_1
      - pi_d_a14_a7_proc_1 >= 0
 c21: 1043 pi_p_a7_a3 + 1043 pi_p_a7_a6 + 1043 pi_d_a7_a0_proc_1
      + 1043 pi_d_a7_a1_proc_1 + 1043 pi_d_a7_a2_proc_1 + 1043 pi_d_a7_a3_proc_1
      + 1043 pi_d_a7_a5_proc_1 + 1043 pi_d_a7_a6_proc_1
      + 1043 pi_d_a7_a11_proc_1 + 1043 pi_d_a7_a12_proc_1
      + 1043 pi_d_a7_a13_proc_1 + 1043 pi_d_a7_a14_proc_1 + pi_y1_a7
      + pi_y2_a7_proc_1 >= 0
 c22: - pi_p_a0_a8 + pi_p_a8_a9 + pi_p_a8_a11 + pi_p_a8_a10 - pi_p_a14_a8
      - pi_p_a10_a8 - pi_d_a0_a8_proc_0 + pi_d_a8_a0_proc_0 - pi_d_a2_a8_proc_0
      + pi_d_a8_a2_proc_0 - pi_d_a4_a8_proc_0 + pi_d_a8_a4_proc_0
      - pi_d_a5_a8_proc_0 + pi_d_a8_a5_proc_0 - pi_d_a6_a8_proc_0
      + pi_d_a8_a6_proc_0 + pi_d_a8_a9_proc_0 - pi_d_a9_a8_proc_0
      + pi_d_a8_a10_proc_0 - pi_d_a10_a8_proc_0 + pi_d_a8_a12_proc_0
      - pi_d_a12_a8_proc_0 + pi_d_a8_a13_proc_0 - pi_d_a13_a8_proc_0 >= 0
 c23: 989 pi_p_a8_a9 + 989 pi_p_a8_a11 + 989 pi_p_a8_a10 + 989 pi_d_a8_a0_proc_0
      + 989 pi_d_a8_a2_proc_0 + 989 pi_d_a8_a4_proc_0 + 989 pi_d_a8_a5_proc_0
      + 989 pi_d_a8_a6_proc_0 + 989 pi_d_a8_a9_proc_0 + 989 pi_d_a8_a10_proc_0
      + 989 pi_d_a8_a12_proc_0 + 989 pi_d_a8_a13_proc_0 + pi_y1_a8
      + pi_y2_a8_proc_0 >= 0
 c24: - pi_p_a8_a9 - pi_p_a10_a9 + pi_p_a9_a11 - pi_d_a0_a9_proc_0
      + pi_d_a9_a0_proc_0 - pi_d_a2_a9_proc_0 + pi_d_a9_a2_proc_0
      - pi_d_a4_a9_proc_0 + pi_d_a9_a4_proc_0 - pi_d_a5_a9_proc_0
      + pi_d_a9_a5_proc_0 - pi_d_a6_a9_proc_0 + pi_d_a9_a6_proc_0
      - pi_d_a8_a9_proc_0 + pi_d_a9_a8_proc_0 + pi_d_a9_a10_proc_0
      - pi_d_a10_a9_proc_0 + pi_d_a9_a12_proc_0 - pi_d_a12_a9_proc_0
      + pi_d_a9_a13_proc_0 - pi_d_a13_a9_proc_0 >= 0
 c25: 1175 pi_p_a9_a11 + 1175 pi_d_a9_a0_proc_0 + 1175 pi_d_a9_a2_proc_0
      + 1175 pi_d_a9_a4_proc_0 + 1175 pi_d_a9_a5_proc_0 + 1175 pi_d_a9_a6_proc_0
      + 1175 pi_d_a9_a8_proc_0 + 1175 pi_d_a9_a10_proc_0
      + 1175 pi_d_a9_a12_proc_0 + 1175 pi_d_a9_a13_proc_0 + pi_y1_a9
      + pi_y2_a9_proc_0 >= 0
 c26: - pi_p_a0_a10 + pi_p_a10_a9 - pi_p_a8_a10 + pi_p_a10_a8
      - pi_d_a0_a10_proc_0 + pi_d_a10_a0_proc_0 - pi_d_a2_a10_proc_0
      + pi_d_a10_a2_proc_0 - pi_d_a4_a10_proc_0 + pi_d_a10_a4_proc_0
      - pi_d_a5_a10_proc_0 + pi_d_a10_a5_proc_0 - pi_d_a6_a10_proc_0
      + pi_d_a10_a6_proc_0 - pi_d_a8_a10_proc_0 + pi_d_a10_a8_proc_0
      - pi_d_a9_a10_proc_0 + pi_d_a10_a9_proc_0 + pi_d_a10_a12_proc_0
      - pi_d_a12_a10_proc_0 + pi_d_a10_a13_proc_0 - pi_d_a13_a10_proc_0 >= 0
 c27: 617 pi_p_a10_a9 + 617 pi_p_a10_a8 + 617 pi_d_a10_a0_proc_0
      + 617 pi_d_a10_a2_proc_0 + 617 pi_d_a10_a4_proc_0 + 617 pi_d_a10_a5_proc_0
      + 617 pi_d_a10_a6_proc_0 + 617 pi_d_a10_a8_proc_0 + 617 pi_d_a10_a9_proc_0
      + 617 pi_d_a10_a12_proc_0 + 617 pi_d_a10_a13_proc_0 + pi_y1_a10
      + pi_y2_a10_proc_0 >= 0
 c28: - pi_p_a8_a11 - pi_p_a14_a11 + pi_p_a11_a13 - pi_p_a9_a11 + pi_p_a11_a14
      + pi_p_a11_a4 - pi_d_a0_a11_proc_1 + pi_d_a11_a0_proc_1
      - pi_d_a1_a11_proc_1 + pi_d_a11_a1_proc_1 - pi_d_a2_a11_proc_1
      + pi_d_a11_a2_proc_1 - pi_d_a3_a11_proc_1 + pi_d_a11_a3_proc_1
      - pi_d_a5_a11_proc_1 + pi_d_a11_a5_proc_1 - pi_d_a6_a11_proc_1
      + pi_d_a11_a6_proc_1 - pi_d_a7_a11_proc_1 + pi_d_a11_a7_proc_1
      + pi_d_a11_a12_proc_1 - pi_d_a12_a11_proc_1 + pi_d_a11_a13_proc_1
      - pi_d_a13_a11_proc_1 + pi_d_a11_a14_proc_1 - pi_d_a14_a11_proc_1 >= 0
 c29: 1059 pi_p_a11_a13 + 1059 pi_p_a11_a14 + 1059 pi_p_a11_a4
      + 1059 pi_d_a11_a0_proc_1 + 1059 pi_d_a11_a1_proc_1
      + 1059 pi_d_a11_a2_proc_1 + 1059 pi_d_a11_a3_proc_1
      + 1059 pi_d_a11_a5_proc_1 + 1059 pi_d_a11_a6_proc_1
      + 1059 pi_d_a11_a7_proc_1 + 1059 pi_d_a11_a12_proc_1
      + 1059 pi_d_a11_a13_proc_1 + 1059 pi_d_a11_a14_proc_1 + pi_y1_a11
      + pi_y2_a11_proc_1 >= 0
 c30: pi_p_a12_a2 - pi_p_a14_a12 - pi_p_a0_a12 + pi_p_a12_a14
      - pi_d_a0_a12_proc_0 - pi_d_a0_a12_proc_1 + pi_d_a12_a0_proc_0
      + pi_d_a12_a0_proc_1 - pi_d_a1_a12_proc_1 + pi_d_a12_a1_proc_1
      - pi_d_a2_a12_proc_0 - pi_d_a2_a12_proc_1 + pi_d_a12_a2_proc_0
      + pi_d_a12_a2_proc_1 - pi_d_a3_a12_proc_1 + pi_d_a12_a3_proc_1
      - pi_d_a4_a12_proc_0 + pi_d_a12_a4_proc_0 - pi_d_a5_a12_proc_0
      - pi_d_a5_a12_proc_1 + pi_d_a12_a5_proc_0 + pi_d_a12_a5_proc_1
      - pi_d_a6_a12_proc_0 - pi_d_a6_a12_proc_1 + pi_d_a12_a6_proc_0
      + pi_d_a12_a6_proc_1 - pi_d_a7_a12_proc_1 + pi_d_a12_a7_proc_1
      - pi_d_a8_a12_proc_0 + pi_d_a12_a8_proc_0 - pi_d_a9_a12_proc_0
      + pi_d_a12_a9_proc_0 - pi_d_a10_a12_proc_0 + pi_d_a12_a10_proc_0
      - pi_d_a11_a12_proc_1 + pi_d_a12_a11_proc_1 + pi_d_a12_a13_proc_0
      + pi_d_a12_a13_proc_1 - pi_d_a13_a12_proc_0 - pi_d_a13_a12_proc_1
      + pi_d_a12_a14_proc_1 - pi_d_a14_a12_proc_1 >= 0
 c31: 1192 pi_p_a12_a2 + 1192 pi_p_a12_a14 + 1192 pi_d_a12_a0_proc_0
      + 1192 pi_d_a12_a2_proc_0 + 1192 pi_d_a12_a4_proc_0
      + 1192 pi_d_a12_a5_proc_0 + 1192 pi_d_a12_a6_proc_0
      + 1192 pi_d_a12_a8_proc_0 + 1192 pi_d_a12_a9_proc_0
      + 1192 pi_d_a12_a10_proc_0 + 1192 pi_d_a12_a13_proc_0 + pi_y1_a12
      + pi_y2_a12_proc_0 >= 0
 c32: 1135 pi_p_a12_a2 + 1135 pi_p_a12_a14 + 1135 pi_d_a12_a0_proc_1
      + 1135 pi_d_a12_a1_proc_1 + 1135 pi_d_a12_a2_proc_1
      + 1135 pi_d_a12_a3_proc_1 + 1135 pi_d_a12_a5_proc_1
      + 1135 pi_d_a12_a6_proc_1 + 1135 pi_d_a12_a7_proc_1
      + 1135 pi_d_a12_a11_proc_1 + 1135 pi_d_a12_a13_proc_1
      + 1135 pi_d_a12_a14_proc_1 + pi_y1_a12 + pi_y2_a12_proc_1 >= 0
 c33: pi_p_a13_a7 + pi_p_a13_a4 - pi_p_a11_a13 + pi_p_a13_a3
      - pi_d_a0_a13_proc_0 - pi_d_a0_a13_proc_1 + pi_d_a13_a0_proc_0
      + pi_d_a13_a0_proc_1 - pi_d_a1_a13_proc_1 + pi_d_a13_a1_proc_1
      - pi_d_a2_a13_proc_0 - pi_d_a2_a13_proc_1 + pi_d_a13_a2_proc_0
      + pi_d_a13_a2_proc_1 - pi_d_a3_a13_proc_1 + pi_d_a13_a3_proc_1
      - pi_d_a4_a13_proc_0 + pi_d_a13_a4_proc_0 - pi_d_a5_a13_proc_0
      - pi_d_a5_a13_proc_1 + pi_d_a13_a5_proc_0 + pi_d_a13_a5_proc_1
      - pi_d_a6_a13_proc_0 - pi_d_a6_a13_proc_1 + pi_d_a13_a6_proc_0
      + pi_d_a13_a6_proc_1 - pi_d_a7_a13_proc_1 + pi_d_a13_a7_proc_1
      - pi_d_a8_a13_proc_0 + pi_d_a13_a8_proc_0 - pi_d_a9_a13_proc_0
      + pi_d_a13_a9_proc_0 - pi_d_a10_a13_proc_0 + pi_d_a13_a10_proc_0
      - pi_d_a11_a13_proc_1 + pi_d_a13_a11_proc_1 - pi_d_a12_a13_proc_0
      - pi_d_a12_a13_proc_1 + pi_d_a13_a12_proc_0 + pi_d_a13_a12_proc_1
      + pi_d_a13_a14_proc_1 - pi_d_a14_a13_proc_1 >= 0
 c34: 921 pi_p_a13_a7 + 921 pi_p_a13_a4 + 921 pi_p_a13_a3
      + 921 pi_d_a13_a0_proc_0 + 921 pi_d_a13_a2_proc_0 + 921 pi_d_a13_a4_proc_0
      + 921 pi_d_a13_a5_proc_0 + 921 pi_d_a13_a6_proc_0 + 921 pi_d_a13_a8_proc_0
      + 921 pi_d_a13_a9_proc_0 + 921 pi_d_a13_a10_proc_0
      + 921 pi_d_a13_a12_proc_0 + pi_y1_a13 + pi_y2_a13_proc_0 >= 0
 c35: 969 pi_p_a13_a7 + 969 pi_p_a13_a4 + 969 pi_p_a13_a3
      + 969 pi_d_a13_a0_proc_1 + 969 pi_d_a13_a1_proc_1 + 969 pi_d_a13_a2_proc_1
      + 969 pi_d_a13_a3_proc_1 + 969 pi_d_a13_a5_proc_1 + 969 pi_d_a13_a6_proc_1
      + 969 pi_d_a13_a7_proc_1 + 969 pi_d_a13_a11_proc_1
      + 969 pi_d_a13_a12_proc_1 + 969 pi_d_a13_a14_proc_1 + pi_y1_a13
      + pi_y2_a13_proc_1 >= 0
 c36: pi_p_a14_a12 - pi_p_a5_a14 + pi_p_a14_a8 + pi_p_a14_a11 - pi_p_a11_a14
      - pi_p_a12_a14 - pi_d_a0_a14_proc_1 + pi_d_a14_a0_proc_1
      - pi_d_a1_a14_proc_1 + pi_d_a14_a1_proc_1 - pi_d_a2_a14_proc_1
      + pi_d_a14_a2_proc_1 - pi_d_a3_a14_proc_1 + pi_d_a14_a3_proc_1
      - pi_d_a5_a14_proc_1 + pi_d_a14_a5_proc_1 - pi_d_a6_a14_proc_1
      + pi_d_a14_a6_proc_1 - pi_d_a7_a14_proc_1 + pi_d_a14_a7_proc_1
      - pi_d_a11_a14_proc_1 + pi_d_a14_a11_proc_1 - pi_d_a12_a14_proc_1
      + pi_d_a14_a12_proc_1 - pi_d_a13_a14_proc_1 + pi_d_a14_a13_proc_1 >= 0
 c37: 908 pi_p_a14_a12 + 908 pi_p_a14_a8 + 908 pi_p_a14_a11
      + 908 pi_d_a14_a0_proc_1 + 908 pi_d_a14_a1_proc_1 + 908 pi_d_a14_a2_proc_1
      + 908 pi_d_a14_a3_proc_1 + 908 pi_d_a14_a5_proc_1 + 908 pi_d_a14_a6_proc_1
      + 908 pi_d_a14_a7_proc_1 + 908 pi_d_a14_a11_proc_1
      + 908 pi_d_a14_a12_proc_1 + 908 pi_d_a14_a13_proc_1 + pi_y1_a14
      + pi_y2_a14_proc_1 >= 0

Bounds
       pi_y1_a0 Free
       pi_y1_a1 Free
       pi_y1_a2 Free
       pi_y1_a3 Free
       pi_y1_a4 Free
       pi_y1_a5 Free
       pi_y1_a6 Free
       pi_y1_a7 Free
       pi_y1_a8 Free
       pi_y1_a9 Free
       pi_y1_a10 Free
       pi_y1_a11 Free
       pi_y1_a12 Free
       pi_y1_a13 Free
       pi_y1_a14 Free
End
