benchmark/results/graph__15-1000-0.10-02_0/graph__15-1000-0.10-02_0_Quinton_Benders_sub.txt
solution for: Quinton Benders_dual_sub
objective: 0.000113289
status: OPTIMAL_SOLUTION(2)
pi_p_a13_a7=0.000
pi_p_a11_a13=0.000
pi_p_a9_a11=0.000
pi_p_a10_a8=0.000
pi_d_a5_a0_proc_0=0.000
pi_d_a0_a10_proc_0=0.000
pi_d_a3_a5_proc_1=0.000
pi_d_a7_a3_proc_1=0.000
pi_d_a8_a9_proc_0=0.000
pi_y1_a0=-0.098
pi_y1_a3=-0.119
pi_y1_a5=-0.125
pi_y1_a7=-0.118
pi_y1_a8=-0.112
pi_y1_a9=-0.133
pi_y1_a10=-0.070
pi_y1_a11=-0.120
pi_y1_a13=-0.104
pi_y2_a0_proc_1=0.098
pi_y2_a5_proc_1=0.125
